data/processed_heuristic-threshold/instances/1/8/ds_524_courier_3073/pairwise.tsp
NAME: ds_524_courier_3073
TYPE: TSP
COMMENT: nil
DIMENSION: 9
EDGE_WEIGHT_TYPE: EXPLICIT
EDGE_WEIGHT_FORMAT: FULL_MATRIX
EDGE_WEIGHT_SECTION
9999 2158 1555 1318 1415 1099 984 1466 1310 
2158 9999 603 846 777 1063 1241 758 865 
1555 603 9999 257 251 465 658 261 275 
1318 846 257 9999 136 220 507 356 207 
1415 777 251 136 9999 328 642 438 327 
1099 1063 465 220 328 9999 365 471 283 
984 1241 658 507 642 365 9999 498 383 
1466 758 261 356 438 471 498 9999 189 
1310 865 275 207 327 283 383 189 9999 
