data/processed_heuristic-threshold/instances/1/8/ds_524_courier_3073/pairwise.sol
9
0 6 8 7 1 2 4 3 5 
